Si cubic diamond 2x2x2 super cell of con
   5.4309000000000003     
     2.0000000000000000    0.0000000000000000    0.0000000000000000
     0.0000000000000000    2.0000000000000000    0.0000000000000000
     0.0000000000000000    0.0000000000000000    2.0000000000000000
   Si
    64
Direct
 -0.0095389784463501 -0.0147984746721983  1.0080750248855781
  0.4934373583727351  1.0070188672493674  1.0063217451761139
  0.9905815693746344  0.4928294839823365  0.0045323815356328
  0.5114083735127740  0.5111981902389224  0.9901823947263911
  0.0112879449318089  1.0048248895360559  0.4999025095355564
  0.4983475157269193  0.0007275181745570  0.4899468344900246
 -0.0172543261010843  0.4976940101436122  0.4797465553255027
  0.4914365615048213  0.4885143168219149  0.5156294490714587
  0.3873222202545227  0.1276397272045966  0.3568023388061674
  0.8743183092943422  0.1414661698671003  0.3746076748146397
  0.3697976836228992  0.6151734409714289  0.3752112595011444
  0.8662744678152355  0.6296726462487029  0.3636144615833284
  0.3774482550720766  0.1276806685237770  0.8644169793746173
  0.8725889532172464  0.1271673356423330  0.8696359646119802
  0.3778953789622357  0.6440399669175891  0.8656613656955316
  0.8657473818798659  0.6205118616092943  0.8655244250662795
  0.0154255660723695  0.2542040743546429  0.2457671507805968
  0.5050701743934497  0.2566236095476532  0.2380685300424322
  0.9996691972961508  0.7518635957460199  0.2571431448345891
  0.5089350034111491  0.7390859224830804  0.2690073912823225
  1.0109739751952498  0.2476312430141489  0.7451286228548374
  0.4984989635422578  0.2594248266045562  0.7631067801597798
  0.9987290457646190  0.7497188270927387  0.7516480999072013
  0.5115168665385177  0.7689883811591036  0.7513443132116832
  0.3847713148247265  0.3761966271667329  0.1051616865357550
  0.8665008892391436  0.3672829458932491  0.1281239991639028
  0.3853932097754331  0.8659188820805499  0.1264842100061171
  0.8646960565270299  0.8620306768158230  0.1355066468413916
  0.3579238603644642  0.3773636609883965  0.6404362659741916
  0.8690783985137763  0.3707828680223536  0.6098399473435442
  0.3722578526572936  0.8727862876568737  0.6246439197400795
  0.8806588522385851  0.8856983340211643  0.6371099962896319
  0.2415597225171864 -0.0088410690843537  0.2550404609629749
  0.7506907834973603  0.0015351152291658  0.2594858621904222
  0.2647639674582287  0.4959599564001691  0.2426430964655911
  0.7325621552441683  0.4857179587054969  0.2606376399185615
  0.2518555922524447 -0.0086325584643151  0.7604948727867694
  0.7462090039395841  0.0005841450270777  0.7503268248991237
  0.2445415975857220  0.4996803090735232  0.7593610413106561
  0.7516831841265827  0.4870267824877078  0.7420014053174812
  0.1295467440145127  0.1177376574272823  0.1203703851457068
  0.6295961356747718  0.1379334642411614  0.1247152760516587
  0.1381313930107108  0.6156191989308115  0.1227513154781589
  0.6397156523749804  0.6241576513535326  0.1395865578178775
  0.1374709955620229  0.1274607326751107  0.6209959787987913
  0.6120922872779320  0.1253962077759993  0.6225001136501451
  0.1157524914623740  0.6184027426685531  0.6248610662848622
  0.6286303413011368  0.6276742797798213  0.6334741504092058
  0.2522557266122409  0.2443653440651078 -0.0093212671981288
  0.7491528169835512  0.2436562882886241 -0.0003487446154190
  0.2467485105027626  0.7496140517673642 -0.0002354087169544
  0.7439423262899469  0.7639985980253206 -0.0006688157082921
  0.2682258668027021  0.2670871797916942  0.4882264036228482
  0.7412219572000712  0.2488900890208286  0.4985658878597166
  0.2448101613930831  0.7338749753267909  0.4930921255354554
  0.7627126329770988  0.7476302431358071  0.4979480678327211
  0.1305383592823468  0.3873002630758281  0.3707623887459698
  0.5984780262864843  0.3735871512783679  0.3795241893932630
  0.1245605377936025  0.8713360516200217  0.3808754611934549
  0.6254782776038960  0.8726935523948242  0.3825979172646886
  0.1255308904723901  0.3707707024351435  0.8834780221686415
  0.6316681194565189  0.3771741263346651  0.8826184236679763
  0.1204312677791753  0.8743420230756873  0.8764718800501218
  0.6282445799155085  0.8993054050307322  0.8788353522479435

  0.13138715E-02  0.39881944E-02  0.47675369E-02
  0.40023175E-02  0.39346807E-02 -0.59839734E-02
 -0.25987250E-02 -0.41372524E-02 -0.16132398E-02
 -0.16953891E-02  0.21530782E-02 -0.38429244E-03
 -0.17976537E-02  0.84428586E-03 -0.31457995E-02
 -0.79727295E-02  0.57685300E-02 -0.16841532E-02
 -0.17831778E-02 -0.59310970E-02  0.23584489E-02
 -0.58215012E-02  0.34180057E-02  0.48185268E-02
  0.57279652E-03 -0.35162435E-02 -0.33000150E-02
  0.11224425E-01 -0.12238806E-02  0.15711962E-02
  0.42555881E-02  0.21485564E-02  0.54264758E-03
 -0.36804563E-02 -0.94013404E-02  0.78860670E-03
  0.42700182E-02 -0.17381572E-02  0.65231906E-02
 -0.25579578E-02  0.98635404E-04  0.31280646E-02
 -0.94433353E-03 -0.12519417E-02 -0.54939525E-02
 -0.15936537E-02  0.28008363E-02  0.73070297E-02
 -0.15611565E-03  0.78160004E-02 -0.34688650E-03
  0.71755382E-02 -0.23373420E-03  0.36091498E-03
  0.17162224E-02 -0.46551865E-02 -0.51284612E-02
  0.16301623E-02 -0.78500528E-03 -0.75268863E-03
  0.27407572E-02  0.64168306E-02 -0.73650834E-02
  0.44849279E-02  0.18709186E-02 -0.48765476E-02
 -0.45263803E-02  0.39706169E-02 -0.50976769E-02
 -0.46465964E-02 -0.90371970E-03  0.39569831E-03
  0.25523820E-02  0.27311356E-02 -0.46202675E-02
 -0.11885315E-02 -0.34700731E-02  0.74955573E-03
  0.15816326E-02 -0.33142882E-02  0.29539409E-02
  0.79393504E-03  0.48308858E-02  0.31054341E-03
  0.18712263E-02 -0.11150052E-02  0.65789081E-02
  0.91387746E-03 -0.48443355E-02  0.12595877E-02
  0.19998624E-02  0.10408805E-02  0.44640264E-02
 -0.42425363E-02  0.21834517E-02  0.30537777E-02
 -0.98021589E-03 -0.55170524E-02  0.54793458E-02
 -0.94758745E-02  0.11988716E-02  0.39241730E-02
  0.13826309E-02 -0.33465164E-02 -0.84405007E-02
 -0.14987440E-02 -0.27396280E-02  0.28086182E-03
  0.18553645E-02  0.13057462E-03 -0.21498630E-03
  0.26366076E-03  0.20275205E-02  0.29902756E-02
  0.42810006E-02 -0.11495014E-02 -0.17377325E-02
 -0.47541152E-02  0.12085957E-02  0.10679466E-02
  0.33372419E-02 -0.73641216E-02 -0.48774761E-02
  0.10341968E-02 -0.39457957E-02 -0.55555037E-03
 -0.92943194E-02  0.29693892E-02  0.30064702E-02
  0.40188237E-03  0.10446724E-02 -0.41953304E-03
 -0.47382989E-03 -0.48450899E-03 -0.76235201E-02
 -0.18138372E-02  0.69109711E-02 -0.58046381E-02
  0.27288634E-02 -0.29812727E-02  0.30762451E-02
  0.56205790E-02  0.63733519E-02  0.33607282E-02
 -0.37741658E-02  0.25402849E-02 -0.42943858E-02
 -0.24714620E-03  0.61696045E-02  0.98058185E-03
  0.21736376E-02  0.19277948E-02  0.42220301E-03
 -0.31129775E-02  0.12581161E-02 -0.69150590E-03
 -0.18520967E-03  0.33883827E-02 -0.38603565E-02
 -0.55119539E-02 -0.27863317E-02 -0.14171648E-03
  0.42982831E-02 -0.66429631E-02 -0.58490711E-03
  0.21678002E-02 -0.37943899E-02  0.15648607E-02
 -0.17808181E-02 -0.68306864E-02 -0.30152711E-03
 -0.50519828E-02  0.74622983E-04  0.10139951E-02
  0.24847746E-02  0.43072723E-03 -0.99090979E-03
  0.12346024E-02  0.40420611E-02  0.17043969E-02
  0.24398451E-02  0.18897909E-02  0.21411832E-02
 -0.55359225E-03  0.24305226E-02  0.38140660E-02
  0.22754909E-02 -0.54542116E-02  0.34494288E-02
  0.26351250E-02 -0.24731375E-02  0.12332046E-03

           1
   3.0000000000000000     
 -0.30343938E+00 -0.41156110E-01 -0.39729454E-01 -0.26299660E+00
  0.99082391E+00  0.98630305E+00  0.93918058E-02
  0.49454279E+00  0.81056155E-02  0.46689878E-02
  0.98986381E+00  0.49168679E+00  0.40868090E-02
  0.51094011E+00  0.51179286E+00  0.99007625E+00
  0.10791438E-01  0.50580790E-02  0.49903365E+00
  0.49614547E+00  0.23207707E-02  0.48948168E+00
  0.98225316E+00  0.49605586E+00  0.48039795E+00
  0.48982868E+00  0.48945836E+00  0.51696031E+00
  0.38748043E+00  0.12666855E+00  0.35589088E+00
  0.87741847E+00  0.14112814E+00  0.37504163E+00
  0.37097307E+00  0.61576687E+00  0.37536114E+00
  0.86525794E+00  0.62707602E+00  0.36383227E+00
  0.37862762E+00  0.12720059E+00  0.86621867E+00
  0.87188245E+00  0.12719458E+00  0.87049993E+00
  0.37763456E+00  0.64369418E+00  0.86414395E+00
  0.86530722E+00  0.62128545E+00  0.86754261E+00
  0.15382447E-01  0.25636283E+00  0.24567134E+00
  0.50705204E+00  0.25655905E+00  0.23816821E+00
  0.14321331E-03  0.75057785E+00  0.25572668E+00
  0.50938525E+00  0.73886911E+00  0.26879950E+00
  0.11730965E-01  0.24940355E+00  0.74309441E+00
  0.49973769E+00  0.25994157E+00  0.76175989E+00
  0.99747887E+00  0.75081550E+00  0.75024014E+00
  0.51023349E+00  0.76873878E+00  0.75145360E+00
  0.38547628E+00  0.37695096E+00  0.10388558E+00
  0.86617262E+00  0.36632452E+00  0.12833102E+00
  0.38583005E+00  0.86500348E+00  0.12730008E+00
  0.86491534E+00  0.86336495E+00  0.13559242E+00
  0.35844069E+00  0.37705570E+00  0.64225334E+00
  0.86933081E+00  0.36944488E+00  0.61018784E+00
  0.37281021E+00  0.87307378E+00  0.62587687E+00
  0.87948708E+00  0.88630140E+00  0.63795344E+00
  0.24128899E+00  0.98963514E+00  0.25655384E+00
  0.74807357E+00  0.18662404E-02  0.26056971E+00
  0.26514585E+00  0.49503566E+00  0.24031185E+00
  0.73214821E+00  0.48496128E+00  0.26071521E+00
  0.25236804E+00  0.99140351E+00  0.76043549E+00
  0.74628183E+00  0.11441408E-02  0.75115273E+00
  0.24572400E+00  0.49936282E+00  0.75888108E+00
  0.75037011E+00  0.48736059E+00  0.74229637E+00
  0.13046848E+00  0.11570371E+00  0.11902324E+00
  0.62988178E+00  0.13684365E+00  0.12456183E+00
  0.13556433E+00  0.61643934E+00  0.12358169E+00
  0.63982665E+00  0.62444619E+00  0.13947068E+00
  0.13734013E+00  0.12732691E+00  0.61889038E+00
  0.61159131E+00  0.12730500E+00  0.62089689E+00
  0.11650620E+00  0.61757932E+00  0.62571072E+00
  0.63018273E+00  0.62943458E+00  0.63440237E+00
  0.25121331E+00  0.24506696E+00  0.98949263E+00
  0.74908456E+00  0.24536032E+00  0.99992209E+00
  0.24734886E+00  0.75014650E+00  0.99988120E+00
  0.74308253E+00  0.76434609E+00  0.99914019E+00
  0.26817471E+00  0.26802304E+00  0.48716018E+00
  0.73969957E+00  0.24812051E+00  0.49852675E+00
  0.24599734E+00  0.73204021E+00  0.49293058E+00
  0.76331137E+00  0.74658224E+00  0.49838028E+00
  0.13004650E+00  0.38541365E+00  0.37067911E+00
  0.59708268E+00  0.37360776E+00  0.37980425E+00
  0.12524683E+00  0.87145502E+00  0.38060177E+00
  0.62581927E+00  0.87380996E+00  0.38306867E+00
  0.12620477E+00  0.37129266E+00  0.88406941E+00
  0.63151522E+00  0.37784543E+00  0.88367186E+00
  0.12105975E+00  0.87283558E+00  0.87742460E+00
  0.62897239E+00  0.89862233E+00  0.87886941E+00
  0.00000000E+00  0.00000000E+00  0.00000000E+00
  0.00000000E+00  0.00000000E+00  0.00000000E+00
  0.00000000E+00  0.00000000E+00  0.00000000E+00
  0.00000000E+00  0.00000000E+00  0.00000000E+00
  0.00000000E+00  0.00000000E+00  0.00000000E+00
  0.00000000E+00  0.00000000E+00  0.00000000E+00
  0.00000000E+00  0.00000000E+00  0.00000000E+00
  0.00000000E+00  0.00000000E+00  0.00000000E+00
  0.00000000E+00  0.00000000E+00  0.00000000E+00
  0.00000000E+00  0.00000000E+00  0.00000000E+00
  0.00000000E+00  0.00000000E+00  0.00000000E+00
  0.00000000E+00  0.00000000E+00  0.00000000E+00
  0.00000000E+00  0.00000000E+00  0.00000000E+00
  0.00000000E+00  0.00000000E+00  0.00000000E+00
  0.00000000E+00  0.00000000E+00  0.00000000E+00
  0.00000000E+00  0.00000000E+00  0.00000000E+00
  0.00000000E+00  0.00000000E+00  0.00000000E+00
  0.00000000E+00  0.00000000E+00  0.00000000E+00
  0.00000000E+00  0.00000000E+00  0.00000000E+00
  0.00000000E+00  0.00000000E+00  0.00000000E+00
  0.00000000E+00  0.00000000E+00  0.00000000E+00
  0.00000000E+00  0.00000000E+00  0.00000000E+00
  0.00000000E+00  0.00000000E+00  0.00000000E+00
  0.00000000E+00  0.00000000E+00  0.00000000E+00
  0.00000000E+00  0.00000000E+00  0.00000000E+00
  0.00000000E+00  0.00000000E+00  0.00000000E+00
  0.00000000E+00  0.00000000E+00  0.00000000E+00
  0.00000000E+00  0.00000000E+00  0.00000000E+00
  0.00000000E+00  0.00000000E+00  0.00000000E+00
  0.00000000E+00  0.00000000E+00  0.00000000E+00
  0.00000000E+00  0.00000000E+00  0.00000000E+00
  0.00000000E+00  0.00000000E+00  0.00000000E+00
  0.00000000E+00  0.00000000E+00  0.00000000E+00
  0.00000000E+00  0.00000000E+00  0.00000000E+00
  0.00000000E+00  0.00000000E+00  0.00000000E+00
  0.00000000E+00  0.00000000E+00  0.00000000E+00
  0.00000000E+00  0.00000000E+00  0.00000000E+00
  0.00000000E+00  0.00000000E+00  0.00000000E+00
  0.00000000E+00  0.00000000E+00  0.00000000E+00
  0.00000000E+00  0.00000000E+00  0.00000000E+00
  0.00000000E+00  0.00000000E+00  0.00000000E+00
  0.00000000E+00  0.00000000E+00  0.00000000E+00
  0.00000000E+00  0.00000000E+00  0.00000000E+00
  0.00000000E+00  0.00000000E+00  0.00000000E+00
  0.00000000E+00  0.00000000E+00  0.00000000E+00
  0.00000000E+00  0.00000000E+00  0.00000000E+00
  0.00000000E+00  0.00000000E+00  0.00000000E+00
  0.00000000E+00  0.00000000E+00  0.00000000E+00
  0.00000000E+00  0.00000000E+00  0.00000000E+00
  0.00000000E+00  0.00000000E+00  0.00000000E+00
  0.00000000E+00  0.00000000E+00  0.00000000E+00
  0.00000000E+00  0.00000000E+00  0.00000000E+00
  0.00000000E+00  0.00000000E+00  0.00000000E+00
  0.00000000E+00  0.00000000E+00  0.00000000E+00
  0.00000000E+00  0.00000000E+00  0.00000000E+00
  0.00000000E+00  0.00000000E+00  0.00000000E+00
  0.00000000E+00  0.00000000E+00  0.00000000E+00
  0.00000000E+00  0.00000000E+00  0.00000000E+00
  0.00000000E+00  0.00000000E+00  0.00000000E+00
  0.00000000E+00  0.00000000E+00  0.00000000E+00
  0.00000000E+00  0.00000000E+00  0.00000000E+00
  0.00000000E+00  0.00000000E+00  0.00000000E+00
  0.00000000E+00  0.00000000E+00  0.00000000E+00
  0.00000000E+00  0.00000000E+00  0.00000000E+00
  0.00000000E+00  0.00000000E+00  0.00000000E+00
  0.00000000E+00  0.00000000E+00  0.00000000E+00
  0.00000000E+00  0.00000000E+00  0.00000000E+00
  0.00000000E+00  0.00000000E+00  0.00000000E+00
  0.00000000E+00  0.00000000E+00  0.00000000E+00
  0.00000000E+00  0.00000000E+00  0.00000000E+00
  0.00000000E+00  0.00000000E+00  0.00000000E+00
  0.00000000E+00  0.00000000E+00  0.00000000E+00
  0.00000000E+00  0.00000000E+00  0.00000000E+00
  0.00000000E+00  0.00000000E+00  0.00000000E+00
  0.00000000E+00  0.00000000E+00  0.00000000E+00
  0.00000000E+00  0.00000000E+00  0.00000000E+00
  0.00000000E+00  0.00000000E+00  0.00000000E+00
  0.00000000E+00  0.00000000E+00  0.00000000E+00
  0.00000000E+00  0.00000000E+00  0.00000000E+00
  0.00000000E+00  0.00000000E+00  0.00000000E+00
  0.00000000E+00  0.00000000E+00  0.00000000E+00
  0.00000000E+00  0.00000000E+00  0.00000000E+00
  0.00000000E+00  0.00000000E+00  0.00000000E+00
  0.00000000E+00  0.00000000E+00  0.00000000E+00
  0.00000000E+00  0.00000000E+00  0.00000000E+00
  0.00000000E+00  0.00000000E+00  0.00000000E+00
  0.00000000E+00  0.00000000E+00  0.00000000E+00
  0.00000000E+00  0.00000000E+00  0.00000000E+00
  0.00000000E+00  0.00000000E+00  0.00000000E+00
  0.00000000E+00  0.00000000E+00  0.00000000E+00
  0.00000000E+00  0.00000000E+00  0.00000000E+00
  0.00000000E+00  0.00000000E+00  0.00000000E+00
  0.00000000E+00  0.00000000E+00  0.00000000E+00
  0.00000000E+00  0.00000000E+00  0.00000000E+00
  0.00000000E+00  0.00000000E+00  0.00000000E+00
  0.00000000E+00  0.00000000E+00  0.00000000E+00
  0.00000000E+00  0.00000000E+00  0.00000000E+00
  0.00000000E+00  0.00000000E+00  0.00000000E+00
  0.00000000E+00  0.00000000E+00  0.00000000E+00
  0.00000000E+00  0.00000000E+00  0.00000000E+00
  0.00000000E+00  0.00000000E+00  0.00000000E+00
  0.00000000E+00  0.00000000E+00  0.00000000E+00
  0.00000000E+00  0.00000000E+00  0.00000000E+00
  0.00000000E+00  0.00000000E+00  0.00000000E+00
  0.00000000E+00  0.00000000E+00  0.00000000E+00
  0.00000000E+00  0.00000000E+00  0.00000000E+00
  0.00000000E+00  0.00000000E+00  0.00000000E+00
  0.00000000E+00  0.00000000E+00  0.00000000E+00
  0.00000000E+00  0.00000000E+00  0.00000000E+00
  0.00000000E+00  0.00000000E+00  0.00000000E+00
  0.00000000E+00  0.00000000E+00  0.00000000E+00
  0.00000000E+00  0.00000000E+00  0.00000000E+00
  0.00000000E+00  0.00000000E+00  0.00000000E+00
  0.00000000E+00  0.00000000E+00  0.00000000E+00
  0.00000000E+00  0.00000000E+00  0.00000000E+00
  0.00000000E+00  0.00000000E+00  0.00000000E+00
  0.00000000E+00  0.00000000E+00  0.00000000E+00
  0.00000000E+00  0.00000000E+00  0.00000000E+00
  0.00000000E+00  0.00000000E+00  0.00000000E+00
  0.00000000E+00  0.00000000E+00  0.00000000E+00
  0.00000000E+00  0.00000000E+00  0.00000000E+00
  0.00000000E+00  0.00000000E+00  0.00000000E+00
  0.00000000E+00  0.00000000E+00  0.00000000E+00
  0.00000000E+00  0.00000000E+00  0.00000000E+00
  0.00000000E+00  0.00000000E+00  0.00000000E+00
  0.00000000E+00  0.00000000E+00  0.00000000E+00
  0.00000000E+00  0.00000000E+00  0.00000000E+00
  0.00000000E+00  0.00000000E+00  0.00000000E+00
