Si cubic diamond 2x2x2 super cell of con
   5.4309000000000003     
     2.0000000000000000    0.0000000000000000    0.0000000000000000
     0.0000000000000000    2.0000000000000000    0.0000000000000000
     0.0000000000000000    0.0000000000000000    2.0000000000000000
   Si
    64
Direct
  0.0091347450439116  0.0030669435774762 -0.0004487565919833
  0.5103574902436228 -0.0164681542624813 -0.0037640153724716
 -0.0088056852362002  0.5023688752338542  0.0016255137810244
  0.4941659819736230  0.4999523682366460 -0.0003707052651503
  0.0029039644219131 -0.0100530202760712  0.4947654249859453
  0.4890761195162979  0.0176035999415447  0.5141298822059902
  0.0098704694942061  0.4829545944544471  0.5146220519084138
  0.5023212475620397  0.5145304464837454  0.4996118960906762
  0.3692315934560393  0.1302714663790824  0.3736489371243349
  0.8754165691654886  0.1230567181093185  0.3705126388438920
  0.3818218373293318  0.6285747725832438  0.3627999315570465
  0.8823748855704412  0.6068175865898785  0.3851941435210282
  0.3724839224273134  0.1272533544471624  0.8803589717999599
  0.8847166903009139  0.1326914057149563  0.8837355170377506
  0.3711788208291825  0.6190449245433352  0.8756737437679517
  0.8694916843654953  0.6263941087197504  0.8726311716583729
  0.0040434056159492  0.2453586063206363  0.2353378787239064
  0.5009988933188718  0.2484365263655194  0.2452405830620832
 -0.0091421396375682  0.7373532277908554  0.2522128117209056
  0.5085791835485071  0.7517055048187041  0.2490685227552467
 -0.0020811822086277  0.2460638369259284  0.7489108427951301
  0.5025769773103796  0.2375756451505449  0.7544397637903775
 -0.0080699710016119  0.7542142441740126  0.7421407814574272
  0.4927077293258716  0.7477895510317577  0.7476417067270480
  0.3768297695998399  0.3726378690567496  0.1221264011766029
  0.8734066108101526  0.3741004733204842  0.1213275394426231
  0.3801430737254470  0.8774343274534329  0.1279672365315294
  0.8750164607407459  0.8846360337144206  0.1306425002318744
  0.3778373182512813  0.3748598936548560  0.6191798975856955
  0.8666502057036830  0.3762697756414544  0.6313265166895513
  0.3696035893798411  0.8802322605268899  0.6382095711546544
  0.8642998107717884  0.8811998135520569  0.6139890916573023
  0.2548049053201941  0.0017861791814316  0.2524831207462025
  0.7423634423955636  0.0079641774236865  0.2613027590971288
  0.2462258788090765  0.5059503797946869  0.2449723730503202
  0.7425783630452549  0.4944201471435969  0.2417190610345697
  0.2424067610147531  0.0022982743170615  0.7541036315324211
  0.7470039055326324  0.0094825430168136  0.7480211385154144
  0.2555555205651403  0.5073489589182268  0.7488606963918476
  0.7555534820772746  0.5052196864181745  0.7548376371634256
  0.1341014736214538  0.1239412945334665  0.1239271653426429
  0.6205325545155973  0.1237504566372118  0.1276001493782098
  0.1185204209299423  0.6252522112399304  0.1173934470125410
  0.6280114538664116  0.6265205720968010  0.1260983676511629
  0.1138001380455354  0.1214296773312281  0.6149084914499207
  0.6248394024093691  0.1324700530911375  0.6122132488169422
  0.1318313960256688  0.6260880618076873  0.6222511279794712
  0.6287320219759088  0.6260949250545061  0.6321589777539942
  0.2506954000841243  0.2541894043431124  0.0062467983259341
  0.7473247301488382  0.2473172925376829  0.0032590752890017
  0.2519437358505042  0.7421242362192629  0.0039931444505583
  0.7612137770347519  0.7584943334955887  0.0089476601514373
  0.2497270581622331  0.2496713112440959  0.5001430087882094
  0.7621281180837978  0.2492346956169449  0.4959503847209129
  0.2632418491061611  0.7496699403954858  0.5010971638157158
  0.7514126639971734  0.7492507514984041  0.4935627134067179
  0.1258259143638097  0.3702715284248055  0.3719862650282199
  0.6178400368681688  0.3848071268842840  0.3816278382597300
  0.1274332594032425  0.8625776381301140  0.3724603206703178
  0.6127204518870117  0.8751771262059809  0.3828633948468693
  0.1278018934248156  0.3775979465653030  0.8686781130419903
  0.6172445458773284  0.3791669309859164  0.8752768802248572
  0.1252039909728624  0.8715865096739664  0.8804624316801282
  0.6322413828672299  0.8609180497992134  0.8661054218284455

  0.36298862E-02  0.12489804E-02  0.46115359E-02
  0.46766142E-02  0.83663009E-03 -0.26141403E-02
 -0.59729304E-02 -0.50689804E-02  0.95950189E-03
 -0.10840419E-02 -0.22745360E-02  0.22453927E-03
  0.16268500E-02 -0.77232972E-02 -0.55419273E-02
 -0.24010730E-02  0.96351777E-02  0.59428225E-03
  0.92208921E-03 -0.61863956E-02  0.73524556E-03
 -0.10205933E-02 -0.14426723E-02 -0.71041542E-02
  0.14787375E-02  0.40763044E-03  0.27917995E-02
  0.50101159E-04 -0.18956314E-02 -0.93152598E-03
  0.27057894E-02 -0.37818185E-02 -0.20483703E-02
 -0.12615362E-02 -0.57702141E-02  0.96664427E-02
  0.38229998E-02  0.88708235E-03 -0.86819297E-03
 -0.52823449E-02  0.19891641E-02  0.42537531E-02
 -0.35321790E-02 -0.34244446E-02 -0.18793229E-02
 -0.36210482E-02  0.19915833E-02  0.17993561E-04
  0.28488609E-02  0.38754108E-02 -0.43186194E-02
  0.50287765E-02  0.14513563E-02  0.36278863E-02
 -0.51936408E-02 -0.40995599E-02  0.31929914E-02
  0.41801371E-02 -0.27234584E-02 -0.19168203E-03
  0.23052924E-02  0.71777971E-03 -0.11070963E-02
  0.10429053E-02 -0.40571486E-02  0.12984107E-02
 -0.11256824E-02  0.48896022E-02 -0.46193985E-02
 -0.42003790E-03  0.21782727E-02  0.19461002E-02
 -0.29489136E-02  0.41394720E-02  0.27140855E-02
 -0.32951785E-02  0.37179623E-03 -0.22505225E-02
  0.23229014E-02 -0.38764953E-03 -0.19828510E-02
 -0.11567813E-02  0.57450229E-02  0.72658493E-02
  0.28329123E-02  0.24467712E-02 -0.13229217E-02
 -0.25542680E-02  0.33818805E-02  0.36372391E-02
 -0.23466384E-02  0.15107097E-02  0.10547871E-01
 -0.40614469E-02  0.38617505E-02 -0.36273106E-03
  0.70282016E-03 -0.56622217E-02  0.47427324E-02
 -0.42645400E-02 -0.42558508E-02  0.39090394E-02
  0.42699622E-02 -0.15964092E-02  0.76603770E-03
 -0.29886104E-02 -0.33917127E-03 -0.66374196E-03
 -0.35273069E-02 -0.54159348E-02  0.81504622E-02
  0.23409902E-02 -0.20858606E-02  0.28277912E-02
  0.37239302E-02  0.20016947E-03  0.20225358E-02
 -0.30324196E-03  0.89798893E-03  0.43544467E-02
  0.24510378E-02  0.56532312E-03 -0.74679140E-02
 -0.40003437E-02  0.55609375E-02 -0.43165982E-02
 -0.50110048E-02  0.34249548E-02  0.49848630E-02
  0.60179474E-02  0.31562442E-02  0.36321653E-02
 -0.18413590E-03  0.29703583E-03 -0.12153037E-02
 -0.10780424E-02  0.10217934E-01 -0.23012870E-02
  0.17333829E-02 -0.39730687E-03  0.14834233E-02
 -0.41113333E-03  0.11098846E-02 -0.14964299E-03
  0.28690767E-02  0.39462722E-02 -0.23607977E-02
 -0.30822648E-02 -0.69718751E-03  0.23711705E-03
 -0.22792187E-02  0.15203258E-03 -0.41768162E-02
  0.63154765E-03  0.61441844E-02  0.25015608E-02
  0.29958911E-02 -0.11291696E-02 -0.44014066E-02
 -0.20018228E-02  0.21237346E-02 -0.14109242E-02
  0.33836296E-03 -0.46103903E-02 -0.32658406E-02
  0.38301175E-02 -0.18652882E-02 -0.32335944E-02
  0.21067136E-02 -0.34730257E-02 -0.14504757E-02
 -0.41400006E-02 -0.10710152E-02 -0.33321942E-02
 -0.52632766E-03 -0.81627837E-02 -0.75345008E-02
 -0.12263390E-02  0.22462693E-03 -0.28373298E-02
  0.56105887E-02 -0.12124827E-02 -0.93618751E-03
 -0.28810337E-02 -0.43943201E-02 -0.32864401E-02
 -0.28695856E-03  0.27871043E-02 -0.25859343E-02
  0.63734375E-02  0.28297242E-02 -0.36273157E-02
