auto generated
 1.0
   9.1860000   0.0000000   0.0000000
   0.0000000   9.1860000   0.0000000
   0.0000000   0.0000000   5.9180000
 Ti O 
   16  32
Cartesian
 2.296500000  2.296500000  1.479500000
 4.593000000  0.000000000  0.000000000
 6.889500000  2.296500000  1.479500000
 6.889500000  2.296500000  4.438500000
 4.593000000  0.000000000  2.959000000
 0.000000000  4.593000000  2.959000000
 2.296500000  6.889500000  4.438500000
 6.889500000  6.889500000  1.479500000
 4.593000000  4.593000000  0.000000000
 2.296500000  6.889500000  1.479500000
 0.000000000  4.593000000  0.000000000
 6.889500000  6.889500000  4.438500000
 0.000000000  0.000000000  0.000000000
 0.000000000  0.000000000  2.959000000
 4.593000000  4.593000000  2.959000000
 2.296500000  2.296500000  4.438500000
 8.288803327  5.490196673  4.438500000
 5.490196673  8.288803327  4.438500000
 5.490196673  3.695803327  4.438500000
 8.288803327  0.897196673  4.438500000
 5.490196673  8.288803327  1.479500000
 5.992303327  1.399303327  2.959000000
 7.786696673  3.193696673  2.959000000
 7.786696673  7.786696673  0.000000000
 7.786696673  3.193696673  0.000000000
 5.992303327  5.992303327  0.000000000
 8.288803327  5.490196673  1.479500000
 5.992303327  1.399303327  0.000000000
 3.193696673  7.786696673  2.959000000
 5.490196673  3.695803327  1.479500000
 0.897196673  3.695803327  1.479500000
 3.695803327  0.897196673  1.479500000
 1.399303327  1.399303327  0.000000000
 3.193696673  3.193696673  0.000000000
 0.897196673  3.695803327  4.438500000
 3.695803327  0.897196673  4.438500000
 1.399303327  1.399303327  2.959000000
 8.288803327  0.897196673  1.479500000
 3.193696673  3.193696673  2.959000000
 3.695803327  5.490196673  1.479500000
 1.399303327  5.992303327  0.000000000
 3.193696673  7.786696673  0.000000000
 0.897196673  8.288803327  4.438500000
 3.695803327  5.490196673  4.438500000
 1.399303327  5.992303327  2.959000000
 5.992303327  5.992303327  2.959000000
 0.897196673  8.288803327  1.479500000
 7.786696673  7.786696673  2.959000000
