Si cubic diamond 2x2x2 super cell of con
   5.4309000000000003     
     2.0000000000000000    0.0000000000000000    0.0000000000000000
     0.0000000000000000    2.0000000000000000    0.0000000000000000
     0.0000000000000000    0.0000000000000000    2.0000000000000000
   Si
    64
Direct
  0.0091347450439116  0.0030669435774762 -0.0004487565919833
  0.5103574902436228 -0.0164681542624813 -0.0037640153724716
 -0.0088056852362002  0.5023688752338542  0.0016255137810244
  0.4941659819736230  0.4999523682366460 -0.0003707052651503
  0.0029039644219131 -0.0100530202760712  0.4947654249859453
  0.4890761195162979  0.0176035999415447  0.5141298822059902
  0.0098704694942061  0.4829545944544471  0.5146220519084138
  0.5023212475620397  0.5145304464837454  0.4996118960906762
  0.3692315934560393  0.1302714663790824  0.3736489371243349
  0.8754165691654886  0.1230567181093185  0.3705126388438920
  0.3818218373293318  0.6285747725832438  0.3627999315570465
  0.8823748855704412  0.6068175865898785  0.3851941435210282
  0.3724839224273134  0.1272533544471624  0.8803589717999599
  0.8847166903009139  0.1326914057149563  0.8837355170377506
  0.3711788208291825  0.6190449245433352  0.8756737437679517
  0.8694916843654953  0.6263941087197504  0.8726311716583729
  0.0040434056159492  0.2453586063206363  0.2353378787239064
  0.5009988933188718  0.2484365263655194  0.2452405830620832
 -0.0091421396375682  0.7373532277908554  0.2522128117209056
  0.5085791835485071  0.7517055048187041  0.2490685227552467
 -0.0020811822086277  0.2460638369259284  0.7489108427951301
  0.5025769773103796  0.2375756451505449  0.7544397637903775
 -0.0080699710016119  0.7542142441740126  0.7421407814574272
  0.4927077293258716  0.7477895510317577  0.7476417067270480
  0.3768297695998399  0.3726378690567496  0.1221264011766029
  0.8734066108101526  0.3741004733204842  0.1213275394426231
  0.3801430737254470  0.8774343274534329  0.1279672365315294
  0.8750164607407459  0.8846360337144206  0.1306425002318744
  0.3778373182512813  0.3748598936548560  0.6191798975856955
  0.8666502057036830  0.3762697756414544  0.6313265166895513
  0.3696035893798411  0.8802322605268899  0.6382095711546544
  0.8642998107717884  0.8811998135520569  0.6139890916573023
  0.2548049053201941  0.0017861791814316  0.2524831207462025
  0.7423634423955636  0.0079641774236865  0.2613027590971288
  0.2462258788090765  0.5059503797946869  0.2449723730503202
  0.7425783630452549  0.4944201471435969  0.2417190610345697
  0.2424067610147531  0.0022982743170615  0.7541036315324211
  0.7470039055326324  0.0094825430168136  0.7480211385154144
  0.2555555205651403  0.5073489589182268  0.7488606963918476
  0.7555534820772746  0.5052196864181745  0.7548376371634256
  0.1341014736214538  0.1239412945334665  0.1239271653426429
  0.6205325545155973  0.1237504566372118  0.1276001493782098
  0.1185204209299423  0.6252522112399304  0.1173934470125410
  0.6280114538664116  0.6265205720968010  0.1260983676511629
  0.1138001380455354  0.1214296773312281  0.6149084914499207
  0.6248394024093691  0.1324700530911375  0.6122132488169422
  0.1318313960256688  0.6260880618076873  0.6222511279794712
  0.6287320219759088  0.6260949250545061  0.6321589777539942
  0.2506954000841243  0.2541894043431124  0.0062467983259341
  0.7473247301488382  0.2473172925376829  0.0032590752890017
  0.2519437358505042  0.7421242362192629  0.0039931444505583
  0.7612137770347519  0.7584943334955887  0.0089476601514373
  0.2497270581622331  0.2496713112440959  0.5001430087882094
  0.7621281180837978  0.2492346956169449  0.4959503847209129
  0.2632418491061611  0.7496699403954858  0.5010971638157158
  0.7514126639971734  0.7492507514984041  0.4935627134067179
  0.1258259143638097  0.3702715284248055  0.3719862650282199
  0.6178400368681688  0.3848071268842840  0.3816278382597300
  0.1274332594032425  0.8625776381301140  0.3724603206703178
  0.6127204518870117  0.8751771262059809  0.3828633948468693
  0.1278018934248156  0.3775979465653030  0.8686781130419903
  0.6172445458773284  0.3791669309859164  0.8752768802248572
  0.1252039909728624  0.8715865096739664  0.8804624316801282
  0.6322413828672299  0.8609180497992134  0.8661054218284455

  0.36298862E-02  0.12489804E-02  0.46115359E-02
  0.46766142E-02  0.83663009E-03 -0.26141403E-02
 -0.59729304E-02 -0.50689804E-02  0.95950189E-03
 -0.10840419E-02 -0.22745360E-02  0.22453927E-03
  0.16268500E-02 -0.77232972E-02 -0.55419273E-02
 -0.24010730E-02  0.96351777E-02  0.59428225E-03
  0.92208921E-03 -0.61863956E-02  0.73524556E-03
 -0.10205933E-02 -0.14426723E-02 -0.71041542E-02
  0.14787375E-02  0.40763044E-03  0.27917995E-02
  0.50101159E-04 -0.18956314E-02 -0.93152598E-03
  0.27057894E-02 -0.37818185E-02 -0.20483703E-02
 -0.12615362E-02 -0.57702141E-02  0.96664427E-02
  0.38229998E-02  0.88708235E-03 -0.86819297E-03
 -0.52823449E-02  0.19891641E-02  0.42537531E-02
 -0.35321790E-02 -0.34244446E-02 -0.18793229E-02
 -0.36210482E-02  0.19915833E-02  0.17993561E-04
  0.28488609E-02  0.38754108E-02 -0.43186194E-02
  0.50287765E-02  0.14513563E-02  0.36278863E-02
 -0.51936408E-02 -0.40995599E-02  0.31929914E-02
  0.41801371E-02 -0.27234584E-02 -0.19168203E-03
  0.23052924E-02  0.71777971E-03 -0.11070963E-02
  0.10429053E-02 -0.40571486E-02  0.12984107E-02
 -0.11256824E-02  0.48896022E-02 -0.46193985E-02
 -0.42003790E-03  0.21782727E-02  0.19461002E-02
 -0.29489136E-02  0.41394720E-02  0.27140855E-02
 -0.32951785E-02  0.37179623E-03 -0.22505225E-02
  0.23229014E-02 -0.38764953E-03 -0.19828510E-02
 -0.11567813E-02  0.57450229E-02  0.72658493E-02
  0.28329123E-02  0.24467712E-02 -0.13229217E-02
 -0.25542680E-02  0.33818805E-02  0.36372391E-02
 -0.23466384E-02  0.15107097E-02  0.10547871E-01
 -0.40614469E-02  0.38617505E-02 -0.36273106E-03
  0.70282016E-03 -0.56622217E-02  0.47427324E-02
 -0.42645400E-02 -0.42558508E-02  0.39090394E-02
  0.42699622E-02 -0.15964092E-02  0.76603770E-03
 -0.29886104E-02 -0.33917127E-03 -0.66374196E-03
 -0.35273069E-02 -0.54159348E-02  0.81504622E-02
  0.23409902E-02 -0.20858606E-02  0.28277912E-02
  0.37239302E-02  0.20016947E-03  0.20225358E-02
 -0.30324196E-03  0.89798893E-03  0.43544467E-02
  0.24510378E-02  0.56532312E-03 -0.74679140E-02
 -0.40003437E-02  0.55609375E-02 -0.43165982E-02
 -0.50110048E-02  0.34249548E-02  0.49848630E-02
  0.60179474E-02  0.31562442E-02  0.36321653E-02
 -0.18413590E-03  0.29703583E-03 -0.12153037E-02
 -0.10780424E-02  0.10217934E-01 -0.23012870E-02
  0.17333829E-02 -0.39730687E-03  0.14834233E-02
 -0.41113333E-03  0.11098846E-02 -0.14964299E-03
  0.28690767E-02  0.39462722E-02 -0.23607977E-02
 -0.30822648E-02 -0.69718751E-03  0.23711705E-03
 -0.22792187E-02  0.15203258E-03 -0.41768162E-02
  0.63154765E-03  0.61441844E-02  0.25015608E-02
  0.29958911E-02 -0.11291696E-02 -0.44014066E-02
 -0.20018228E-02  0.21237346E-02 -0.14109242E-02
  0.33836296E-03 -0.46103903E-02 -0.32658406E-02
  0.38301175E-02 -0.18652882E-02 -0.32335944E-02
  0.21067136E-02 -0.34730257E-02 -0.14504757E-02
 -0.41400006E-02 -0.10710152E-02 -0.33321942E-02
 -0.52632766E-03 -0.81627837E-02 -0.75345008E-02
 -0.12263390E-02  0.22462693E-03 -0.28373298E-02
  0.56105887E-02 -0.12124827E-02 -0.93618751E-03
 -0.28810337E-02 -0.43943201E-02 -0.32864401E-02
 -0.28695856E-03  0.27871043E-02 -0.25859343E-02
  0.63734375E-02  0.28297242E-02 -0.36273157E-02

           1
   3.0000000000000000     
 -0.32984759E+00 -0.38666600E-01 -0.36812121E-01 -0.29210823E+00
  0.10137310E-01  0.34119086E-02  0.82493725E-03
  0.51164916E+00  0.98376292E+00  0.99551397E+00
  0.98954461E+00  0.50096884E+00  0.18905256E-02
  0.49386657E+00  0.49932415E+00  0.99969131E+00
  0.33532960E-02  0.98781383E+00  0.49323476E+00
  0.48841295E+00  0.20264810E-01  0.51429402E+00
  0.10125148E-01  0.48124593E+00  0.51482512E+00
  0.50203936E+00  0.51413198E+00  0.49764975E+00
  0.36964002E+00  0.13038405E+00  0.37442002E+00
  0.87543041E+00  0.12253315E+00  0.37025535E+00
  0.38256917E+00  0.62753024E+00  0.36223418E+00
  0.88202645E+00  0.60522387E+00  0.38786399E+00
  0.37353982E+00  0.12749836E+00  0.88011918E+00
  0.88325772E+00  0.13324081E+00  0.88491039E+00
  0.37020324E+00  0.61809910E+00  0.87515468E+00
  0.86849156E+00  0.62694418E+00  0.87263614E+00
  0.48302533E-02  0.24642898E+00  0.23414509E+00
  0.50238783E+00  0.24883739E+00  0.24624260E+00
  0.98942339E+00  0.73622094E+00  0.25309471E+00
  0.50973373E+00  0.75095329E+00  0.24901558E+00
  0.99855553E+00  0.24626209E+00  0.74860507E+00
  0.50286502E+00  0.23645507E+00  0.75479838E+00
  0.99161912E+00  0.75556474E+00  0.74086492E+00
  0.49259172E+00  0.74839118E+00  0.74817921E+00
  0.37601529E+00  0.37378118E+00  0.12287602E+00
  0.87249649E+00  0.37420316E+00  0.12070595E+00
  0.38078465E+00  0.87732726E+00  0.12741958E+00
  0.87469696E+00  0.88622279E+00  0.13264931E+00
  0.37861976E+00  0.37553569E+00  0.61881451E+00
  0.86594472E+00  0.37720384E+00  0.63233111E+00
  0.36895545E+00  0.88064951E+00  0.64112286E+00
  0.86317805E+00  0.88226642E+00  0.61388891E+00
  0.25499902E+00  0.22228874E-03  0.25379305E+00
  0.74118559E+00  0.67887228E-02  0.26238243E+00
  0.24740523E+00  0.50550946E+00  0.24518395E+00
  0.74175292E+00  0.49432647E+00  0.24153574E+00
  0.24143253E+00  0.80240766E-03  0.75635477E+00
  0.74765048E+00  0.89064339E-02  0.74880217E+00
  0.25658406E+00  0.50740425E+00  0.74941932E+00
  0.75546973E+00  0.50546771E+00  0.75604032E+00
  0.13477844E+00  0.12409744E+00  0.12186455E+00
  0.61942767E+00  0.12528637E+00  0.12640792E+00
  0.11713639E+00  0.62619817E+00  0.11877025E+00
  0.62967359E+00  0.62739232E+00  0.12710156E+00
  0.11374928E+00  0.12151172E+00  0.61457283E+00
  0.62454165E+00  0.13529222E+00  0.61157764E+00
  0.13231015E+00  0.62597833E+00  0.62266085E+00
  0.62861847E+00  0.62640147E+00  0.63211765E+00
  0.25148783E+00  0.25527935E+00  0.55947523E-02
  0.74647342E+00  0.24712473E+00  0.33245664E-02
  0.25131422E+00  0.74216623E+00  0.28395190E-02
  0.76138821E+00  0.76019134E+00  0.96385845E-02
  0.25055452E+00  0.24935944E+00  0.49892735E+00
  0.76157522E+00  0.24982127E+00  0.49556069E+00
  0.26333530E+00  0.74839656E+00  0.50019515E+00
  0.75247053E+00  0.74873556E+00  0.49266960E+00
  0.12640778E+00  0.36931229E+00  0.37158565E+00
  0.61669658E+00  0.38451132E+00  0.38070750E+00
  0.12728789E+00  0.86032310E+00  0.37037931E+00
  0.61238174E+00  0.87523917E+00  0.38207973E+00
  0.12935152E+00  0.37726306E+00  0.86841954E+00
  0.61644881E+00  0.37795323E+00  0.87436917E+00
  0.12512473E+00  0.87235630E+00  0.87974820E+00
  0.63400171E+00  0.86169961E+00  0.86510357E+00
  0.00000000E+00  0.00000000E+00  0.00000000E+00
  0.00000000E+00  0.00000000E+00  0.00000000E+00
  0.00000000E+00  0.00000000E+00  0.00000000E+00
  0.00000000E+00  0.00000000E+00  0.00000000E+00
  0.00000000E+00  0.00000000E+00  0.00000000E+00
  0.00000000E+00  0.00000000E+00  0.00000000E+00
  0.00000000E+00  0.00000000E+00  0.00000000E+00
  0.00000000E+00  0.00000000E+00  0.00000000E+00
  0.00000000E+00  0.00000000E+00  0.00000000E+00
  0.00000000E+00  0.00000000E+00  0.00000000E+00
  0.00000000E+00  0.00000000E+00  0.00000000E+00
  0.00000000E+00  0.00000000E+00  0.00000000E+00
  0.00000000E+00  0.00000000E+00  0.00000000E+00
  0.00000000E+00  0.00000000E+00  0.00000000E+00
  0.00000000E+00  0.00000000E+00  0.00000000E+00
  0.00000000E+00  0.00000000E+00  0.00000000E+00
  0.00000000E+00  0.00000000E+00  0.00000000E+00
  0.00000000E+00  0.00000000E+00  0.00000000E+00
  0.00000000E+00  0.00000000E+00  0.00000000E+00
  0.00000000E+00  0.00000000E+00  0.00000000E+00
  0.00000000E+00  0.00000000E+00  0.00000000E+00
  0.00000000E+00  0.00000000E+00  0.00000000E+00
  0.00000000E+00  0.00000000E+00  0.00000000E+00
  0.00000000E+00  0.00000000E+00  0.00000000E+00
  0.00000000E+00  0.00000000E+00  0.00000000E+00
  0.00000000E+00  0.00000000E+00  0.00000000E+00
  0.00000000E+00  0.00000000E+00  0.00000000E+00
  0.00000000E+00  0.00000000E+00  0.00000000E+00
  0.00000000E+00  0.00000000E+00  0.00000000E+00
  0.00000000E+00  0.00000000E+00  0.00000000E+00
  0.00000000E+00  0.00000000E+00  0.00000000E+00
  0.00000000E+00  0.00000000E+00  0.00000000E+00
  0.00000000E+00  0.00000000E+00  0.00000000E+00
  0.00000000E+00  0.00000000E+00  0.00000000E+00
  0.00000000E+00  0.00000000E+00  0.00000000E+00
  0.00000000E+00  0.00000000E+00  0.00000000E+00
  0.00000000E+00  0.00000000E+00  0.00000000E+00
  0.00000000E+00  0.00000000E+00  0.00000000E+00
  0.00000000E+00  0.00000000E+00  0.00000000E+00
  0.00000000E+00  0.00000000E+00  0.00000000E+00
  0.00000000E+00  0.00000000E+00  0.00000000E+00
  0.00000000E+00  0.00000000E+00  0.00000000E+00
  0.00000000E+00  0.00000000E+00  0.00000000E+00
  0.00000000E+00  0.00000000E+00  0.00000000E+00
  0.00000000E+00  0.00000000E+00  0.00000000E+00
  0.00000000E+00  0.00000000E+00  0.00000000E+00
  0.00000000E+00  0.00000000E+00  0.00000000E+00
  0.00000000E+00  0.00000000E+00  0.00000000E+00
  0.00000000E+00  0.00000000E+00  0.00000000E+00
  0.00000000E+00  0.00000000E+00  0.00000000E+00
  0.00000000E+00  0.00000000E+00  0.00000000E+00
  0.00000000E+00  0.00000000E+00  0.00000000E+00
  0.00000000E+00  0.00000000E+00  0.00000000E+00
  0.00000000E+00  0.00000000E+00  0.00000000E+00
  0.00000000E+00  0.00000000E+00  0.00000000E+00
  0.00000000E+00  0.00000000E+00  0.00000000E+00
  0.00000000E+00  0.00000000E+00  0.00000000E+00
  0.00000000E+00  0.00000000E+00  0.00000000E+00
  0.00000000E+00  0.00000000E+00  0.00000000E+00
  0.00000000E+00  0.00000000E+00  0.00000000E+00
  0.00000000E+00  0.00000000E+00  0.00000000E+00
  0.00000000E+00  0.00000000E+00  0.00000000E+00
  0.00000000E+00  0.00000000E+00  0.00000000E+00
  0.00000000E+00  0.00000000E+00  0.00000000E+00
  0.00000000E+00  0.00000000E+00  0.00000000E+00
  0.00000000E+00  0.00000000E+00  0.00000000E+00
  0.00000000E+00  0.00000000E+00  0.00000000E+00
  0.00000000E+00  0.00000000E+00  0.00000000E+00
  0.00000000E+00  0.00000000E+00  0.00000000E+00
  0.00000000E+00  0.00000000E+00  0.00000000E+00
  0.00000000E+00  0.00000000E+00  0.00000000E+00
  0.00000000E+00  0.00000000E+00  0.00000000E+00
  0.00000000E+00  0.00000000E+00  0.00000000E+00
  0.00000000E+00  0.00000000E+00  0.00000000E+00
  0.00000000E+00  0.00000000E+00  0.00000000E+00
  0.00000000E+00  0.00000000E+00  0.00000000E+00
  0.00000000E+00  0.00000000E+00  0.00000000E+00
  0.00000000E+00  0.00000000E+00  0.00000000E+00
  0.00000000E+00  0.00000000E+00  0.00000000E+00
  0.00000000E+00  0.00000000E+00  0.00000000E+00
  0.00000000E+00  0.00000000E+00  0.00000000E+00
  0.00000000E+00  0.00000000E+00  0.00000000E+00
  0.00000000E+00  0.00000000E+00  0.00000000E+00
  0.00000000E+00  0.00000000E+00  0.00000000E+00
  0.00000000E+00  0.00000000E+00  0.00000000E+00
  0.00000000E+00  0.00000000E+00  0.00000000E+00
  0.00000000E+00  0.00000000E+00  0.00000000E+00
  0.00000000E+00  0.00000000E+00  0.00000000E+00
  0.00000000E+00  0.00000000E+00  0.00000000E+00
  0.00000000E+00  0.00000000E+00  0.00000000E+00
  0.00000000E+00  0.00000000E+00  0.00000000E+00
  0.00000000E+00  0.00000000E+00  0.00000000E+00
  0.00000000E+00  0.00000000E+00  0.00000000E+00
  0.00000000E+00  0.00000000E+00  0.00000000E+00
  0.00000000E+00  0.00000000E+00  0.00000000E+00
  0.00000000E+00  0.00000000E+00  0.00000000E+00
  0.00000000E+00  0.00000000E+00  0.00000000E+00
  0.00000000E+00  0.00000000E+00  0.00000000E+00
  0.00000000E+00  0.00000000E+00  0.00000000E+00
  0.00000000E+00  0.00000000E+00  0.00000000E+00
  0.00000000E+00  0.00000000E+00  0.00000000E+00
  0.00000000E+00  0.00000000E+00  0.00000000E+00
  0.00000000E+00  0.00000000E+00  0.00000000E+00
  0.00000000E+00  0.00000000E+00  0.00000000E+00
  0.00000000E+00  0.00000000E+00  0.00000000E+00
  0.00000000E+00  0.00000000E+00  0.00000000E+00
  0.00000000E+00  0.00000000E+00  0.00000000E+00
  0.00000000E+00  0.00000000E+00  0.00000000E+00
  0.00000000E+00  0.00000000E+00  0.00000000E+00
  0.00000000E+00  0.00000000E+00  0.00000000E+00
  0.00000000E+00  0.00000000E+00  0.00000000E+00
  0.00000000E+00  0.00000000E+00  0.00000000E+00
  0.00000000E+00  0.00000000E+00  0.00000000E+00
  0.00000000E+00  0.00000000E+00  0.00000000E+00
  0.00000000E+00  0.00000000E+00  0.00000000E+00
  0.00000000E+00  0.00000000E+00  0.00000000E+00
  0.00000000E+00  0.00000000E+00  0.00000000E+00
  0.00000000E+00  0.00000000E+00  0.00000000E+00
  0.00000000E+00  0.00000000E+00  0.00000000E+00
  0.00000000E+00  0.00000000E+00  0.00000000E+00
  0.00000000E+00  0.00000000E+00  0.00000000E+00
  0.00000000E+00  0.00000000E+00  0.00000000E+00
  0.00000000E+00  0.00000000E+00  0.00000000E+00
  0.00000000E+00  0.00000000E+00  0.00000000E+00
  0.00000000E+00  0.00000000E+00  0.00000000E+00
  0.00000000E+00  0.00000000E+00  0.00000000E+00
  0.00000000E+00  0.00000000E+00  0.00000000E+00
  0.00000000E+00  0.00000000E+00  0.00000000E+00
